87 251
314 3
98 154
70 4
90 2
51 72
247 270
63 356
397 2
43 102
371 305
97 211
284 384
52 215
166 35
97 161
140 270
57 195
129 262
336 9
82 164
261 238
330 317
314 36
218 143
71 388
320 171
331 327
389 46
141 37
249 244
112 268
139 376
229 14
172 128
355 16
10 345
79 265
146 372
313 244
129 386
343 248
59 272
18 281
320 194
350 373
375 118
94 107
363 315
202 177
353 85
276 385
121 265
326 36
49 270
365 244
391 300
104 125
256 291
178 183
80 369
196 176
37 361
229 366
116 335
174 201
96 245
262 95
229 153
5 230
242 173
65 379
66 175
326 286
346 366
39 111
138 27
107 80
179 112
361 211
273 7
219 139
168 147
258 225
16 244
80 398
73 83
286 61
323 387
304 322
185 77
29 323
85 395
212 96
359 167
397 196
275 220
163 29
100 312
93 281
